system =  Cu111
ISTART = 0
ICHARG = 2
INIWAV = 1
ISPIN  = 2
ENCUT  = 450
NELM   = 200
NELMIN = 4
EDIFF  = 1E-06
PREC   = Normal
LREAL  = Auto
EDIFFG = -0.02
NSW    = 0
IBRION = -1
ISIF   = 2
ISYM   = 0
POTIM  = 0.1
ISMEAR = 1
SIGMA  = 0.2
ALGO = Very Fast
LPLANE = .TRUE.
LSCALU = .FALSE.
NCORE = 10
NSIM   = 4
LWAVE  = .FALSE.
LCHARG = .TRUE.
LVTOT  = .FALSE.
LELF   = .FALSE.
IVDW= 12 
LAECHG = .TRUE.
